71050 272608
75670 275968
75782 276640
75838 277564
75894 278236
75922 275548
75950 276220
75950 278908
75978 278656
76566 277984
76790 277564
77322 278656
77490 276892
77546 277984
78050 276640
78134 277564
78722 278236
79030 276892
79142 276220
79142 276640
79170 277984
79170 280000
79590 278656
79870 280672
80094 280252
80122 281344
80290 282016
80514 275968
80822 278656
80850 277312
80934 276640
81046 277984
81074 280672
81130 282016
81158 280924
81494 275968
81494 276220
81578 280252
81914 280672
82194 278656
